(declare-var N Int)
(declare-var i Int)
(declare-var i1 Int)
(declare-var isHeap Int)
(declare-var isHeap1 Int)
(declare-var isHeap2 Int)
(declare-var isHeap3 Int)
(declare-var min Int)
(declare-var min1 Int)
(declare-var max Int)
(declare-var max1 Int)
(declare-var len Int)
(declare-var len1 Int)
(declare-var d Int)
(declare-var d1 Int)
(declare-var ret Int)
(declare-var ret1 Int)
(declare-rel insert (Int Int Int Int Int Int Int Int Int))
(declare-rel deleteMin (Int Int Int Int Int Int Int Int Int))
(declare-rel downHeap (Int))
(declare-rel inv1 (Int Int Int Int Int Int))
(declare-rel inv2 (Int Int Int Int Int Int Int))
(declare-rel fail ())
(define-fun is_valid ((x Int)) Bool (or (= x 1) (= x 0)))
(define-fun MAX () Int 128)
(define-fun MIN () Int -129)

(rule (=> (and (> N 0) (= i1 0) (= isHeap1 1) (= len1 0) (= min MAX) (= max MIN)) (inv1 i1 N isHeap1 min max len1)))
(rule (=> (and (inv1 i N isHeap min max len) (is_valid isHeap) (< i N) (insert i isHeap min max len isHeap1 min1 max1 len1) (= i1 (+ i 1))) (inv1 i1 N isHeap1 min1 max1 len1)))
(rule (=> (and (inv1 i N isHeap min max len) (is_valid isHeap) (not (< i N)) (= d 0) (= ret MAX)) (inv2 d N min max len isHeap ret)))
(rule (=> (and (inv2 d N min max len isHeap ret) (is_valid isHeap)  (is_valid isHeap2) (not (= len 0)) (deleteMin min max len isHeap min1 max1 len1 ret1 isHeap1) (downHeap isHeap2) (= d1 (+ d 1))) (inv2 d1 N min1 max1 len1 isHeap2 ret1)))
(rule (=> (and (inv2 d N min max len isHeap ret) (is_valid isHeap) (= len 0) (not (and (= ret (- N 1)) (= isHeap 1)))) fail))

(query fail :print-certificate true)